% From Gecode's examples/domino.cc
% Example 1
r = 7;
c = 8;
high = 6;
board = array2d(1..r, 1..c, 
    [
      5,1,2,4,6,2,0,5,
      6,6,4,3,5,0,1,5,
      2,0,4,0,4,0,5,0,
      6,1,3,6,3,5,4,3,
      3,1,0,1,2,2,1,4,
      3,6,6,2,4,0,5,4,
      1,3,6,1,2,3,5,2
    ])
;
